
 param n:= 12;

 param B1:=45;

 param B2:=31;

 param B3:=44;

 param: w c q p:=
1 6 9 2 3
2 2 4 1 6
3 9 1 3 4
4 9 7 8 5
5 1 5 6 1
6 7 2 7 2
7 5 8 5 1
8 3 8 1 2
9 4 6 6 5
10 4 2 5 4
11 6 3 3 2
12 6 5 6 5
;